c nIsolatedPIs 0
c maxPI 16
p cnf 86 211
c gate 17 7 -15 0
7 -17 0
-15 -17 0
-7 15 17 0
c gate 18 -8 16 0
-8 -18 0
16 -18 0
8 -16 18 0
c gate 19 -17 18 0
-17 -19 0
18 -19 0
17 -18 19 0
c gate 20 8 -16 0
8 -20 0
-16 -20 0
-8 16 20 0
c gate 21 -6 14 0
-6 -21 0
14 -21 0
6 -14 21 0
c gate 22 6 -14 0
6 -22 0
-14 -22 0
-6 14 22 0
c gate 23 5 -13 0
5 -23 0
-13 -23 0
-5 13 23 0
c gate 24 -22 -23 0
-22 -24 0
-23 -24 0
22 23 24 0
c gate 25 -21 -24 0
-21 -25 0
-24 -25 0
21 24 25 0
c gate 26 -17 -25 0
-17 -26 0
-25 -26 0
17 25 26 0
c gate 27 -7 15 0
-7 -27 0
15 -27 0
7 -15 27 0
c gate 28 -26 -27 0
-26 -28 0
-27 -28 0
26 27 28 0
c gate 29 20 28 0
20 -29 0
28 -29 0
-20 -28 29 0
c gate 30 -19 -29 0
-19 -30 0
-29 -30 0
19 29 30 0
c gate 31 -18 -20 0
-18 -31 0
-20 -31 0
18 20 31 0
c gate 32 -20 -28 0
-20 -32 0
-28 -32 0
20 28 32 0
c gate 33 4 -12 0
4 -33 0
-12 -33 0
-4 12 33 0
c gate 34 3 -11 0
3 -34 0
-11 -34 0
-3 11 34 0
c gate 35 -33 -34 0
-33 -35 0
-34 -35 0
33 34 35 0
c gate 36 2 -10 0
2 -36 0
-10 -36 0
-2 10 36 0
c gate 37 -1 9 0
-1 -37 0
9 -37 0
1 -9 37 0
c gate 38 -36 37 0
-36 -38 0
37 -38 0
36 -37 38 0
c gate 39 -3 11 0
-3 -39 0
11 -39 0
3 -11 39 0
c gate 40 -2 10 0
-2 -40 0
10 -40 0
2 -10 40 0
c gate 41 -39 -40 0
-39 -41 0
-40 -41 0
39 40 41 0
c gate 42 35 41 0
35 -42 0
41 -42 0
-35 -41 42 0
c gate 43 -38 42 0
-38 -43 0
42 -43 0
38 -42 43 0
c gate 44 35 -43 0
35 -44 0
-43 -44 0
-35 43 44 0
c gate 45 -5 13 0
-5 -45 0
13 -45 0
5 -13 45 0
c gate 46 -21 -45 0
-21 -46 0
-45 -46 0
21 45 46 0
c gate 47 24 46 0
24 -47 0
46 -47 0
-24 -46 47 0
c gate 48 -4 12 0
-4 -48 0
12 -48 0
4 -12 48 0
c gate 49 47 -48 0
47 -49 0
-48 -49 0
-47 48 49 0
c gate 50 -44 49 0
-44 -50 0
49 -50 0
44 -49 50 0
c gate 51 -25 -50 0
-25 -51 0
-50 -51 0
25 50 51 0
c gate 52 1 -9 0
1 -52 0
-9 -52 0
-1 9 52 0
c gate 53 -36 -48 0
-36 -53 0
-48 -53 0
36 48 53 0
c gate 54 -52 53 0
-52 -54 0
53 -54 0
52 -53 54 0
c gate 55 43 54 0
43 -55 0
54 -55 0
-43 -54 55 0
c gate 56 47 55 0
47 -56 0
55 -56 0
-47 -55 56 0
c gate 57 -51 -56 0
-51 -57 0
-56 -57 0
51 56 57 0
c gate 58 -27 57 0
-27 -58 0
57 -58 0
27 -57 58 0
c gate 59 32 -58 0
32 -59 0
-58 -59 0
-32 58 59 0
c gate 60 32 56 0
32 -60 0
56 -60 0
-32 -56 60 0
c gate 61 26 -50 0
26 -61 0
-50 -61 0
-26 50 61 0
c gate 62 -18 -27 0
-18 -62 0
-27 -62 0
18 27 62 0
c gate 63 -61 62 0
-61 -63 0
62 -63 0
61 -62 63 0
c gate 64 -60 63 0
-60 -64 0
63 -64 0
60 -63 64 0
c gate 65 -59 -64 0
-59 -65 0
-64 -65 0
59 64 65 0
c gate 66 -31 -65 0
-31 -66 0
-65 -66 0
31 65 66 0
c gate 67 -30 66 0
-30 -67 0
66 -67 0
30 -66 67 0
c gate 68 30 -66 0
30 -68 0
-66 -68 0
-30 66 68 0
c gate 69 -67 -68 0
-67 -69 0
-68 -69 0
67 68 69 0
c gate 70 -20 -64 0
-20 -70 0
-64 -70 0
20 64 70 0
c gate 71 51 -70 0
51 -71 0
-70 -71 0
-51 70 71 0
c gate 72 57 70 0
57 -72 0
70 -72 0
-57 -70 72 0
c gate 73 -71 -72 0
-71 -73 0
-72 -73 0
71 72 73 0
c gate 74 -18 -32 0
-18 -74 0
-32 -74 0
18 32 74 0
c gate 75 57 -74 0
57 -75 0
-74 -75 0
-57 74 75 0
c gate 76 -25 74 0
-25 -76 0
74 -76 0
25 -74 76 0
c gate 77 -75 -76 0
-75 -77 0
-76 -77 0
75 76 77 0
c gate 78 -73 77 0
-73 -78 0
77 -78 0
73 -77 78 0
c gate 79 73 -77 0
73 -79 0
-77 -79 0
-73 77 79 0
c gate 80 -23 -45 0
-23 -80 0
-45 -80 0
23 45 80 0
c gate 81 55 80 0
55 -81 0
80 -81 0
-55 -80 81 0
c gate 82 -74 -81 0
-74 -82 0
-81 -82 0
74 81 82 0
c gate 83 -70 82 0
-70 -83 0
82 -83 0
70 -82 83 0
c gate 84 -79 -83 0
-79 -84 0
-83 -84 0
79 83 84 0
c gate 85 -78 84 0
-78 -85 0
84 -85 0
78 -84 85 0
c gate 86 -69 85 0
-69 -86 0
85 -86 0
69 -85 86 0
c PO
-86 0
